p cnf 244 661
c node "figure4-0-0-0" must have at least one color
1 2 3 4 0
c node "figure4-0-0-1" must have at least one color
5 6 7 8 0
c node "figure4-0-0-2" must have at least one color
9 10 11 12 0
c node "figure4-0-0-3" must have at least one color
13 14 15 16 0
c node "figure4-0-0-4" must have at least one color
17 18 19 20 0
c node "figure4-0-0-5" must have at least one color
21 22 23 24 0
c node "figure4-0-0-6" must have at least one color
25 26 27 28 0
c node "figure4-0-1-1" must have at least one color
29 30 31 32 0
c node "figure4-0-1-2" must have at least one color
33 34 35 36 0
c node "figure4-0-1-6" must have at least one color
37 38 39 40 0
c node "figure4-0-2-2" must have at least one color
41 42 43 44 0
c node "figure4-0-2-3" must have at least one color
45 46 47 48 0
c node "figure4-0-3-3" must have at least one color
49 50 51 52 0
c node "figure4-0-3-4" must have at least one color
53 54 55 56 0
c node "figure4-0-4-4" must have at least one color
57 58 59 60 0
c node "figure4-0-4-5" must have at least one color
61 62 63 64 0
c node "figure4-0-5-5" must have at least one color
65 66 67 68 0
c node "figure4-0-5-6" must have at least one color
69 70 71 72 0
c node "figure4-0-6-6" must have at least one color
73 74 75 76 0
c node "figure4-0-7-1" must have at least one color
77 78 79 80 0
c node "figure4-0-7-2" must have at least one color
81 82 83 84 0
c node "figure4-0-8-2" must have at least one color
85 86 87 88 0
c node "figure4-0-8-3" must have at least one color
89 90 91 92 0
c node "figure4-0-9-3" must have at least one color
93 94 95 96 0
c node "figure4-0-9-4" must have at least one color
97 98 99 100 0
c node "figure4-0-10-4" must have at least one color
101 102 103 104 0
c node "figure4-0-10-5" must have at least one color
105 106 107 108 0
c node "figure4-0-11-5" must have at least one color
109 110 111 112 0
c node "figure4-0-11-6" must have at least one color
113 114 115 116 0
c node "figure4-0-12-1" must have at least one color
117 118 119 120 0
c node "figure4-0-12-6" must have at least one color
121 122 123 124 0
c node "figure4-1-0-1" must have at least one color
125 126 127 128 0
c node "figure4-1-0-2" must have at least one color
129 130 131 132 0
c node "figure4-1-0-3" must have at least one color
133 134 135 136 0
c node "figure4-1-0-4" must have at least one color
137 138 139 140 0
c node "figure4-1-0-5" must have at least one color
141 142 143 144 0
c node "figure4-1-0-6" must have at least one color
145 146 147 148 0
c node "figure4-1-1-1" must have at least one color
149 150 151 152 0
c node "figure4-1-1-2" must have at least one color
153 154 155 156 0
c node "figure4-1-1-6" must have at least one color
157 158 159 160 0
c node "figure4-1-2-2" must have at least one color
161 162 163 164 0
c node "figure4-1-2-3" must have at least one color
165 166 167 168 0
c node "figure4-1-3-3" must have at least one color
169 170 171 172 0
c node "figure4-1-3-4" must have at least one color
173 174 175 176 0
c node "figure4-1-4-4" must have at least one color
177 178 179 180 0
c node "figure4-1-4-5" must have at least one color
181 182 183 184 0
c node "figure4-1-5-5" must have at least one color
185 186 187 188 0
c node "figure4-1-5-6" must have at least one color
189 190 191 192 0
c node "figure4-1-6-6" must have at least one color
193 194 195 196 0
c node "figure4-1-7-1" must have at least one color
197 198 199 200 0
c node "figure4-1-7-2" must have at least one color
201 202 203 204 0
c node "figure4-1-8-2" must have at least one color
205 206 207 208 0
c node "figure4-1-8-3" must have at least one color
209 210 211 212 0
c node "figure4-1-9-3" must have at least one color
213 214 215 216 0
c node "figure4-1-9-4" must have at least one color
217 218 219 220 0
c node "figure4-1-10-4" must have at least one color
221 222 223 224 0
c node "figure4-1-10-5" must have at least one color
225 226 227 228 0
c node "figure4-1-11-5" must have at least one color
229 230 231 232 0
c node "figure4-1-11-6" must have at least one color
233 234 235 236 0
c node "figure4-1-12-1" must have at least one color
237 238 239 240 0
c node "figure4-1-12-6" must have at least one color
241 242 243 244 0
c nodes "figure4-0-0-0" and "figure4-0-0-1" may not have the same color
-1 -5 0
-2 -6 0
-3 -7 0
-4 -8 0
c nodes "figure4-0-0-0" and "figure4-0-0-2" may not have the same color
-1 -9 0
-2 -10 0
-3 -11 0
-4 -12 0
c nodes "figure4-0-0-0" and "figure4-0-0-3" may not have the same color
-1 -13 0
-2 -14 0
-3 -15 0
-4 -16 0
c nodes "figure4-0-0-0" and "figure4-0-0-4" may not have the same color
-1 -17 0
-2 -18 0
-3 -19 0
-4 -20 0
c nodes "figure4-0-0-0" and "figure4-0-0-5" may not have the same color
-1 -21 0
-2 -22 0
-3 -23 0
-4 -24 0
c nodes "figure4-0-0-0" and "figure4-0-0-6" may not have the same color
-1 -25 0
-2 -26 0
-3 -27 0
-4 -28 0
c nodes "figure4-0-0-0" and "figure4-1-0-1" may not have the same color
-1 -125 0
-2 -126 0
-3 -127 0
-4 -128 0
c nodes "figure4-0-0-0" and "figure4-1-0-2" may not have the same color
-1 -129 0
-2 -130 0
-3 -131 0
-4 -132 0
c nodes "figure4-0-0-0" and "figure4-1-0-3" may not have the same color
-1 -133 0
-2 -134 0
-3 -135 0
-4 -136 0
c nodes "figure4-0-0-0" and "figure4-1-0-4" may not have the same color
-1 -137 0
-2 -138 0
-3 -139 0
-4 -140 0
c nodes "figure4-0-0-0" and "figure4-1-0-5" may not have the same color
-1 -141 0
-2 -142 0
-3 -143 0
-4 -144 0
c nodes "figure4-0-0-0" and "figure4-1-0-6" may not have the same color
-1 -145 0
-2 -146 0
-3 -147 0
-4 -148 0
c nodes "figure4-0-0-1" and "figure4-0-0-2" may not have the same color
-5 -9 0
-6 -10 0
-7 -11 0
-8 -12 0
c nodes "figure4-0-0-1" and "figure4-0-0-6" may not have the same color
-5 -25 0
-6 -26 0
-7 -27 0
-8 -28 0
c nodes "figure4-0-0-1" and "figure4-0-1-1" may not have the same color
-5 -29 0
-6 -30 0
-7 -31 0
-8 -32 0
c nodes "figure4-0-0-1" and "figure4-0-1-2" may not have the same color
-5 -33 0
-6 -34 0
-7 -35 0
-8 -36 0
c nodes "figure4-0-0-1" and "figure4-0-1-6" may not have the same color
-5 -37 0
-6 -38 0
-7 -39 0
-8 -40 0
c nodes "figure4-0-0-2" and "figure4-0-0-3" may not have the same color
-9 -13 0
-10 -14 0
-11 -15 0
-12 -16 0
c nodes "figure4-0-0-2" and "figure4-0-1-2" may not have the same color
-9 -33 0
-10 -34 0
-11 -35 0
-12 -36 0
c nodes "figure4-0-0-2" and "figure4-0-2-2" may not have the same color
-9 -41 0
-10 -42 0
-11 -43 0
-12 -44 0
c nodes "figure4-0-0-2" and "figure4-0-2-3" may not have the same color
-9 -45 0
-10 -46 0
-11 -47 0
-12 -48 0
c nodes "figure4-0-0-3" and "figure4-0-0-4" may not have the same color
-13 -17 0
-14 -18 0
-15 -19 0
-16 -20 0
c nodes "figure4-0-0-3" and "figure4-0-2-3" may not have the same color
-13 -45 0
-14 -46 0
-15 -47 0
-16 -48 0
c nodes "figure4-0-0-3" and "figure4-0-3-3" may not have the same color
-13 -49 0
-14 -50 0
-15 -51 0
-16 -52 0
c nodes "figure4-0-0-3" and "figure4-0-3-4" may not have the same color
-13 -53 0
-14 -54 0
-15 -55 0
-16 -56 0
c nodes "figure4-0-0-4" and "figure4-0-0-5" may not have the same color
-17 -21 0
-18 -22 0
-19 -23 0
-20 -24 0
c nodes "figure4-0-0-4" and "figure4-0-3-4" may not have the same color
-17 -53 0
-18 -54 0
-19 -55 0
-20 -56 0
c nodes "figure4-0-0-4" and "figure4-0-4-4" may not have the same color
-17 -57 0
-18 -58 0
-19 -59 0
-20 -60 0
c nodes "figure4-0-0-4" and "figure4-0-4-5" may not have the same color
-17 -61 0
-18 -62 0
-19 -63 0
-20 -64 0
c nodes "figure4-0-0-5" and "figure4-0-0-6" may not have the same color
-21 -25 0
-22 -26 0
-23 -27 0
-24 -28 0
c nodes "figure4-0-0-5" and "figure4-0-4-5" may not have the same color
-21 -61 0
-22 -62 0
-23 -63 0
-24 -64 0
c nodes "figure4-0-0-5" and "figure4-0-5-5" may not have the same color
-21 -65 0
-22 -66 0
-23 -67 0
-24 -68 0
c nodes "figure4-0-0-5" and "figure4-0-5-6" may not have the same color
-21 -69 0
-22 -70 0
-23 -71 0
-24 -72 0
c nodes "figure4-0-0-6" and "figure4-0-1-6" may not have the same color
-25 -37 0
-26 -38 0
-27 -39 0
-28 -40 0
c nodes "figure4-0-0-6" and "figure4-0-5-6" may not have the same color
-25 -69 0
-26 -70 0
-27 -71 0
-28 -72 0
c nodes "figure4-0-0-6" and "figure4-0-6-6" may not have the same color
-25 -73 0
-26 -74 0
-27 -75 0
-28 -76 0
c nodes "figure4-0-1-1" and "figure4-0-1-2" may not have the same color
-29 -33 0
-30 -34 0
-31 -35 0
-32 -36 0
c nodes "figure4-0-1-1" and "figure4-0-1-6" may not have the same color
-29 -37 0
-30 -38 0
-31 -39 0
-32 -40 0
c nodes "figure4-0-1-1" and "figure4-0-7-1" may not have the same color
-29 -77 0
-30 -78 0
-31 -79 0
-32 -80 0
c nodes "figure4-0-1-1" and "figure4-0-12-1" may not have the same color
-29 -117 0
-30 -118 0
-31 -119 0
-32 -120 0
c nodes "figure4-0-1-1" and "figure4-1-1-1" may not have the same color
-29 -149 0
-30 -150 0
-31 -151 0
-32 -152 0
c nodes "figure4-0-1-2" and "figure4-0-2-2" may not have the same color
-33 -41 0
-34 -42 0
-35 -43 0
-36 -44 0
c nodes "figure4-0-1-2" and "figure4-0-7-1" may not have the same color
-33 -77 0
-34 -78 0
-35 -79 0
-36 -80 0
c nodes "figure4-0-1-2" and "figure4-0-7-2" may not have the same color
-33 -81 0
-34 -82 0
-35 -83 0
-36 -84 0
c nodes "figure4-0-1-6" and "figure4-0-6-6" may not have the same color
-37 -73 0
-38 -74 0
-39 -75 0
-40 -76 0
c nodes "figure4-0-1-6" and "figure4-0-12-1" may not have the same color
-37 -117 0
-38 -118 0
-39 -119 0
-40 -120 0
c nodes "figure4-0-1-6" and "figure4-0-12-6" may not have the same color
-37 -121 0
-38 -122 0
-39 -123 0
-40 -124 0
c nodes "figure4-0-2-2" and "figure4-0-2-3" may not have the same color
-41 -45 0
-42 -46 0
-43 -47 0
-44 -48 0
c nodes "figure4-0-2-2" and "figure4-0-7-2" may not have the same color
-41 -81 0
-42 -82 0
-43 -83 0
-44 -84 0
c nodes "figure4-0-2-2" and "figure4-0-8-2" may not have the same color
-41 -85 0
-42 -86 0
-43 -87 0
-44 -88 0
c nodes "figure4-0-2-2" and "figure4-1-2-2" may not have the same color
-41 -161 0
-42 -162 0
-43 -163 0
-44 -164 0
c nodes "figure4-0-2-3" and "figure4-0-3-3" may not have the same color
-45 -49 0
-46 -50 0
-47 -51 0
-48 -52 0
c nodes "figure4-0-2-3" and "figure4-0-8-2" may not have the same color
-45 -85 0
-46 -86 0
-47 -87 0
-48 -88 0
c nodes "figure4-0-2-3" and "figure4-0-8-3" may not have the same color
-45 -89 0
-46 -90 0
-47 -91 0
-48 -92 0
c nodes "figure4-0-3-3" and "figure4-0-3-4" may not have the same color
-49 -53 0
-50 -54 0
-51 -55 0
-52 -56 0
c nodes "figure4-0-3-3" and "figure4-0-8-3" may not have the same color
-49 -89 0
-50 -90 0
-51 -91 0
-52 -92 0
c nodes "figure4-0-3-3" and "figure4-0-9-3" may not have the same color
-49 -93 0
-50 -94 0
-51 -95 0
-52 -96 0
c nodes "figure4-0-3-3" and "figure4-1-3-3" may not have the same color
-49 -169 0
-50 -170 0
-51 -171 0
-52 -172 0
c nodes "figure4-0-3-4" and "figure4-0-4-4" may not have the same color
-53 -57 0
-54 -58 0
-55 -59 0
-56 -60 0
c nodes "figure4-0-3-4" and "figure4-0-9-3" may not have the same color
-53 -93 0
-54 -94 0
-55 -95 0
-56 -96 0
c nodes "figure4-0-3-4" and "figure4-0-9-4" may not have the same color
-53 -97 0
-54 -98 0
-55 -99 0
-56 -100 0
c nodes "figure4-0-4-4" and "figure4-0-4-5" may not have the same color
-57 -61 0
-58 -62 0
-59 -63 0
-60 -64 0
c nodes "figure4-0-4-4" and "figure4-0-9-4" may not have the same color
-57 -97 0
-58 -98 0
-59 -99 0
-60 -100 0
c nodes "figure4-0-4-4" and "figure4-0-10-4" may not have the same color
-57 -101 0
-58 -102 0
-59 -103 0
-60 -104 0
c nodes "figure4-0-4-4" and "figure4-1-4-4" may not have the same color
-57 -177 0
-58 -178 0
-59 -179 0
-60 -180 0
c nodes "figure4-0-4-5" and "figure4-0-5-5" may not have the same color
-61 -65 0
-62 -66 0
-63 -67 0
-64 -68 0
c nodes "figure4-0-4-5" and "figure4-0-10-4" may not have the same color
-61 -101 0
-62 -102 0
-63 -103 0
-64 -104 0
c nodes "figure4-0-4-5" and "figure4-0-10-5" may not have the same color
-61 -105 0
-62 -106 0
-63 -107 0
-64 -108 0
c nodes "figure4-0-5-5" and "figure4-0-5-6" may not have the same color
-65 -69 0
-66 -70 0
-67 -71 0
-68 -72 0
c nodes "figure4-0-5-5" and "figure4-0-10-5" may not have the same color
-65 -105 0
-66 -106 0
-67 -107 0
-68 -108 0
c nodes "figure4-0-5-5" and "figure4-0-11-5" may not have the same color
-65 -109 0
-66 -110 0
-67 -111 0
-68 -112 0
c nodes "figure4-0-5-5" and "figure4-1-5-5" may not have the same color
-65 -185 0
-66 -186 0
-67 -187 0
-68 -188 0
c nodes "figure4-0-5-6" and "figure4-0-6-6" may not have the same color
-69 -73 0
-70 -74 0
-71 -75 0
-72 -76 0
c nodes "figure4-0-5-6" and "figure4-0-11-5" may not have the same color
-69 -109 0
-70 -110 0
-71 -111 0
-72 -112 0
c nodes "figure4-0-5-6" and "figure4-0-11-6" may not have the same color
-69 -113 0
-70 -114 0
-71 -115 0
-72 -116 0
c nodes "figure4-0-6-6" and "figure4-0-11-6" may not have the same color
-73 -113 0
-74 -114 0
-75 -115 0
-76 -116 0
c nodes "figure4-0-6-6" and "figure4-0-12-6" may not have the same color
-73 -121 0
-74 -122 0
-75 -123 0
-76 -124 0
c nodes "figure4-0-6-6" and "figure4-1-6-6" may not have the same color
-73 -193 0
-74 -194 0
-75 -195 0
-76 -196 0
c nodes "figure4-0-7-1" and "figure4-0-7-2" may not have the same color
-77 -81 0
-78 -82 0
-79 -83 0
-80 -84 0
c nodes "figure4-0-8-2" and "figure4-0-8-3" may not have the same color
-85 -89 0
-86 -90 0
-87 -91 0
-88 -92 0
c nodes "figure4-0-9-3" and "figure4-0-9-4" may not have the same color
-93 -97 0
-94 -98 0
-95 -99 0
-96 -100 0
c nodes "figure4-0-10-4" and "figure4-0-10-5" may not have the same color
-101 -105 0
-102 -106 0
-103 -107 0
-104 -108 0
c nodes "figure4-0-11-5" and "figure4-0-11-6" may not have the same color
-109 -113 0
-110 -114 0
-111 -115 0
-112 -116 0
c nodes "figure4-0-12-1" and "figure4-0-12-6" may not have the same color
-117 -121 0
-118 -122 0
-119 -123 0
-120 -124 0
c nodes "figure4-1-0-1" and "figure4-1-0-2" may not have the same color
-125 -129 0
-126 -130 0
-127 -131 0
-128 -132 0
c nodes "figure4-1-0-1" and "figure4-1-0-6" may not have the same color
-125 -145 0
-126 -146 0
-127 -147 0
-128 -148 0
c nodes "figure4-1-0-1" and "figure4-1-1-1" may not have the same color
-125 -149 0
-126 -150 0
-127 -151 0
-128 -152 0
c nodes "figure4-1-0-1" and "figure4-1-1-2" may not have the same color
-125 -153 0
-126 -154 0
-127 -155 0
-128 -156 0
c nodes "figure4-1-0-1" and "figure4-1-1-6" may not have the same color
-125 -157 0
-126 -158 0
-127 -159 0
-128 -160 0
c nodes "figure4-1-0-2" and "figure4-1-0-3" may not have the same color
-129 -133 0
-130 -134 0
-131 -135 0
-132 -136 0
c nodes "figure4-1-0-2" and "figure4-1-1-2" may not have the same color
-129 -153 0
-130 -154 0
-131 -155 0
-132 -156 0
c nodes "figure4-1-0-2" and "figure4-1-2-2" may not have the same color
-129 -161 0
-130 -162 0
-131 -163 0
-132 -164 0
c nodes "figure4-1-0-2" and "figure4-1-2-3" may not have the same color
-129 -165 0
-130 -166 0
-131 -167 0
-132 -168 0
c nodes "figure4-1-0-3" and "figure4-1-0-4" may not have the same color
-133 -137 0
-134 -138 0
-135 -139 0
-136 -140 0
c nodes "figure4-1-0-3" and "figure4-1-2-3" may not have the same color
-133 -165 0
-134 -166 0
-135 -167 0
-136 -168 0
c nodes "figure4-1-0-3" and "figure4-1-3-3" may not have the same color
-133 -169 0
-134 -170 0
-135 -171 0
-136 -172 0
c nodes "figure4-1-0-3" and "figure4-1-3-4" may not have the same color
-133 -173 0
-134 -174 0
-135 -175 0
-136 -176 0
c nodes "figure4-1-0-4" and "figure4-1-0-5" may not have the same color
-137 -141 0
-138 -142 0
-139 -143 0
-140 -144 0
c nodes "figure4-1-0-4" and "figure4-1-3-4" may not have the same color
-137 -173 0
-138 -174 0
-139 -175 0
-140 -176 0
c nodes "figure4-1-0-4" and "figure4-1-4-4" may not have the same color
-137 -177 0
-138 -178 0
-139 -179 0
-140 -180 0
c nodes "figure4-1-0-4" and "figure4-1-4-5" may not have the same color
-137 -181 0
-138 -182 0
-139 -183 0
-140 -184 0
c nodes "figure4-1-0-5" and "figure4-1-0-6" may not have the same color
-141 -145 0
-142 -146 0
-143 -147 0
-144 -148 0
c nodes "figure4-1-0-5" and "figure4-1-4-5" may not have the same color
-141 -181 0
-142 -182 0
-143 -183 0
-144 -184 0
c nodes "figure4-1-0-5" and "figure4-1-5-5" may not have the same color
-141 -185 0
-142 -186 0
-143 -187 0
-144 -188 0
c nodes "figure4-1-0-5" and "figure4-1-5-6" may not have the same color
-141 -189 0
-142 -190 0
-143 -191 0
-144 -192 0
c nodes "figure4-1-0-6" and "figure4-1-1-6" may not have the same color
-145 -157 0
-146 -158 0
-147 -159 0
-148 -160 0
c nodes "figure4-1-0-6" and "figure4-1-5-6" may not have the same color
-145 -189 0
-146 -190 0
-147 -191 0
-148 -192 0
c nodes "figure4-1-0-6" and "figure4-1-6-6" may not have the same color
-145 -193 0
-146 -194 0
-147 -195 0
-148 -196 0
c nodes "figure4-1-1-1" and "figure4-1-1-2" may not have the same color
-149 -153 0
-150 -154 0
-151 -155 0
-152 -156 0
c nodes "figure4-1-1-1" and "figure4-1-1-6" may not have the same color
-149 -157 0
-150 -158 0
-151 -159 0
-152 -160 0
c nodes "figure4-1-1-1" and "figure4-1-7-1" may not have the same color
-149 -197 0
-150 -198 0
-151 -199 0
-152 -200 0
c nodes "figure4-1-1-1" and "figure4-1-12-1" may not have the same color
-149 -237 0
-150 -238 0
-151 -239 0
-152 -240 0
c nodes "figure4-1-1-2" and "figure4-1-2-2" may not have the same color
-153 -161 0
-154 -162 0
-155 -163 0
-156 -164 0
c nodes "figure4-1-1-2" and "figure4-1-7-1" may not have the same color
-153 -197 0
-154 -198 0
-155 -199 0
-156 -200 0
c nodes "figure4-1-1-2" and "figure4-1-7-2" may not have the same color
-153 -201 0
-154 -202 0
-155 -203 0
-156 -204 0
c nodes "figure4-1-1-6" and "figure4-1-6-6" may not have the same color
-157 -193 0
-158 -194 0
-159 -195 0
-160 -196 0
c nodes "figure4-1-1-6" and "figure4-1-12-1" may not have the same color
-157 -237 0
-158 -238 0
-159 -239 0
-160 -240 0
c nodes "figure4-1-1-6" and "figure4-1-12-6" may not have the same color
-157 -241 0
-158 -242 0
-159 -243 0
-160 -244 0
c nodes "figure4-1-2-2" and "figure4-1-2-3" may not have the same color
-161 -165 0
-162 -166 0
-163 -167 0
-164 -168 0
c nodes "figure4-1-2-2" and "figure4-1-7-2" may not have the same color
-161 -201 0
-162 -202 0
-163 -203 0
-164 -204 0
c nodes "figure4-1-2-2" and "figure4-1-8-2" may not have the same color
-161 -205 0
-162 -206 0
-163 -207 0
-164 -208 0
c nodes "figure4-1-2-3" and "figure4-1-3-3" may not have the same color
-165 -169 0
-166 -170 0
-167 -171 0
-168 -172 0
c nodes "figure4-1-2-3" and "figure4-1-8-2" may not have the same color
-165 -205 0
-166 -206 0
-167 -207 0
-168 -208 0
c nodes "figure4-1-2-3" and "figure4-1-8-3" may not have the same color
-165 -209 0
-166 -210 0
-167 -211 0
-168 -212 0
c nodes "figure4-1-3-3" and "figure4-1-3-4" may not have the same color
-169 -173 0
-170 -174 0
-171 -175 0
-172 -176 0
c nodes "figure4-1-3-3" and "figure4-1-8-3" may not have the same color
-169 -209 0
-170 -210 0
-171 -211 0
-172 -212 0
c nodes "figure4-1-3-3" and "figure4-1-9-3" may not have the same color
-169 -213 0
-170 -214 0
-171 -215 0
-172 -216 0
c nodes "figure4-1-3-4" and "figure4-1-4-4" may not have the same color
-173 -177 0
-174 -178 0
-175 -179 0
-176 -180 0
c nodes "figure4-1-3-4" and "figure4-1-9-3" may not have the same color
-173 -213 0
-174 -214 0
-175 -215 0
-176 -216 0
c nodes "figure4-1-3-4" and "figure4-1-9-4" may not have the same color
-173 -217 0
-174 -218 0
-175 -219 0
-176 -220 0
c nodes "figure4-1-4-4" and "figure4-1-4-5" may not have the same color
-177 -181 0
-178 -182 0
-179 -183 0
-180 -184 0
c nodes "figure4-1-4-4" and "figure4-1-9-4" may not have the same color
-177 -217 0
-178 -218 0
-179 -219 0
-180 -220 0
c nodes "figure4-1-4-4" and "figure4-1-10-4" may not have the same color
-177 -221 0
-178 -222 0
-179 -223 0
-180 -224 0
c nodes "figure4-1-4-5" and "figure4-1-5-5" may not have the same color
-181 -185 0
-182 -186 0
-183 -187 0
-184 -188 0
c nodes "figure4-1-4-5" and "figure4-1-10-4" may not have the same color
-181 -221 0
-182 -222 0
-183 -223 0
-184 -224 0
c nodes "figure4-1-4-5" and "figure4-1-10-5" may not have the same color
-181 -225 0
-182 -226 0
-183 -227 0
-184 -228 0
c nodes "figure4-1-5-5" and "figure4-1-5-6" may not have the same color
-185 -189 0
-186 -190 0
-187 -191 0
-188 -192 0
c nodes "figure4-1-5-5" and "figure4-1-10-5" may not have the same color
-185 -225 0
-186 -226 0
-187 -227 0
-188 -228 0
c nodes "figure4-1-5-5" and "figure4-1-11-5" may not have the same color
-185 -229 0
-186 -230 0
-187 -231 0
-188 -232 0
c nodes "figure4-1-5-6" and "figure4-1-6-6" may not have the same color
-189 -193 0
-190 -194 0
-191 -195 0
-192 -196 0
c nodes "figure4-1-5-6" and "figure4-1-11-5" may not have the same color
-189 -229 0
-190 -230 0
-191 -231 0
-192 -232 0
c nodes "figure4-1-5-6" and "figure4-1-11-6" may not have the same color
-189 -233 0
-190 -234 0
-191 -235 0
-192 -236 0
c nodes "figure4-1-6-6" and "figure4-1-11-6" may not have the same color
-193 -233 0
-194 -234 0
-195 -235 0
-196 -236 0
c nodes "figure4-1-6-6" and "figure4-1-12-6" may not have the same color
-193 -241 0
-194 -242 0
-195 -243 0
-196 -244 0
c nodes "figure4-1-7-1" and "figure4-1-7-2" may not have the same color
-197 -201 0
-198 -202 0
-199 -203 0
-200 -204 0
c nodes "figure4-1-8-2" and "figure4-1-8-3" may not have the same color
-205 -209 0
-206 -210 0
-207 -211 0
-208 -212 0
c nodes "figure4-1-9-3" and "figure4-1-9-4" may not have the same color
-213 -217 0
-214 -218 0
-215 -219 0
-216 -220 0
c nodes "figure4-1-10-4" and "figure4-1-10-5" may not have the same color
-221 -225 0
-222 -226 0
-223 -227 0
-224 -228 0
c nodes "figure4-1-11-5" and "figure4-1-11-6" may not have the same color
-229 -233 0
-230 -234 0
-231 -235 0
-232 -236 0
c nodes "figure4-1-12-1" and "figure4-1-12-6" may not have the same color
-237 -241 0
-238 -242 0
-239 -243 0
-240 -244 0